c
c start with comments
c
p cnf 32 20
-21 -20 -23 0
6 13 0
3 -12 1 -21 10 -34 0
15 -18 15 3 0
14 -26 -12 15 0
-22 5 0
-10 31 0
-16 -33 0
20 -24 33 32 0
2 19 -23 19 -6 -4 0
-7 29 0
-30 -31 8 14 0
16 27 16 0
17 -25 -30 0
32 25 15 12 0
-17 4 0
-4 9 18 19 0
-8 21 -6 0
18 -30 -32 0
-20 15 26 0